sat
(model
  (define-fun |map$unknown:4|
    ( (v_0 Int) (v_1 Int) ) Bool
    (= (+ v_0 (* (- 1) v_1)) 0)
  )
  (define-fun |zip$unknown:7|
    ( (v_0 Int) (v_1 Int) (v_2 Int) ) Bool
    (= (+ v_0 (* (- 1) v_1)) 0)
  )
  (define-fun |loop$unknown:2|
    ( (v_0 Int) (v_1 Int) ) Bool
    false
  )
)
